1094.19 0
0 104 53 56 55 58 60 63 66 64 62 61 65 59 57 54 52 0
0 95 39 42 41 44 47 46 49 50 51 48 45 43 40 38 37 0
0 88 111 86 85 18 118 6 5 4 3 1 2 83 113 117 81 119 120 0
0 82 112 84 7 9 10 11 15 14 13 12 8 108 114 90 91 0
0 69 70 75 72 78 80 79 77 68 76 73 74 71 67 103 0
0 87 89 92 93 96 94 97 115 110 98 116 100 99 101 107 106 105 102 0
0 17 16 19 25 22 24 27 30 33 34 36 29 35 32 31 28 26 23 20 21 109 0
